128 131 66 74 158 35 175 107 198 196 190 28 127 57 102 110 192 21 184 172 41 22 109 167 10 88 152 69 48 169 97 138 139 89 16 93 166 96 104 31 161 125 199 155 0 49 168 174 129 80 33 148 185 37 65 7 51 137 119 179 26 23 164 87 178 12 180 78 146 40 83 136 171 14 72 38 187 70 121 122 92 3 154 43 59 52 123 117 144 135 18 191 50 118 36 195 61 34 29 99 1 143 47 140 91 116 177 54 112 86 25 162 130 147 94 150 55 20 181 9 141 8 101 115 4 176 2 82 39 5 19 24 113 163 132 46 27 11 114 105 103 182 81 17 84 58 149 63 42 76 90 53 153 62 15 151 157 183 106 68 133 156 79 193 77 173 64 159 85 95 142 188 186 13 67 32 165 44 98 30 56 71 134 160 75 126 108 124 145 45 120 189 100 194 73 111 60 170 6 197